NAME : portcgen-27-27
COMMENT : portcgen N=27, seed=27
TYPE : TSP
DIMENSION : 27
EDGE_WEIGHT_TYPE : EUC_2D
NODE_COORD_SECTION
1 -7123 371521
2 16609 -66110
3 -45944 221031
4 117716 192943
5 -55987 111559
6 -16181 -92752
7 -244985 112004
8 -34809 211242
9 68251 121024
10 -14952 100987
11 -177811 -253613
12 -253168 -258169
13 38447 -48934
14 46044 -210567
15 -110945 110357
16 197568 -117330
17 254809 153335
18 193944 -166322
19 66871 241720
20 -251641 206402
21 45763 296853
22 -2687 447697
23 -132950 -158736
24 -7467 363813
25 14338 78027
26 -17085 -294678
27 71649 266311
